c preprocessed version of myciel6, 95 vertices, 755 edges
p td 95 755
0 1
0 3
0 6
0 8
0 12
0 14
0 17
0 19
0 24
0 26
0 29
0 31
0 35
0 37
0 40
0 42
0 48
0 50
0 53
0 55
0 59
0 61
0 64
0 66
0 71
0 73
0 76
0 78
0 82
0 84
0 87
0 89
1 2
1 5
1 7
1 11
1 13
1 16
1 18
1 23
1 25
1 28
1 30
1 34
1 36
1 39
1 41
1 47
1 49
1 52
1 54
1 58
1 60
1 63
1 65
1 70
1 72
1 75
1 77
1 81
1 83
1 86
1 88
2 4
2 6
2 9
2 12
2 15
2 17
2 20
2 24
2 27
2 29
2 32
2 35
2 38
2 40
2 43
2 48
2 51
2 53
2 56
2 59
2 62
2 64
2 67
2 71
2 74
2 76
2 79
2 82
2 85
2 87
2 90
3 4
3 5
3 9
3 11
3 15
3 16
3 20
3 23
3 27
3 28
3 32
3 34
3 38
3 39
3 43
3 47
3 51
3 52
3 56
3 58
3 62
3 63
3 67
3 70
3 74
3 75
3 79
3 81
3 85
3 86
3 90
4 7
4 8
4 13
4 14
4 18
4 19
4 25
4 26
4 30
4 31
4 36
4 37
4 41
4 42
4 49
4 50
4 54
4 55
4 60
4 61
4 65
4 66
4 72
4 73
4 77
4 78
4 83
4 84
4 88
4 89
5 10
5 12
5 14
5 21
5 24
5 26
5 33
5 35
5 37
5 44
5 48
5 50
5 57
5 59
5 61
5 68
5 71
5 73
5 80
5 82
5 84
5 91
6 10
6 11
6 13
6 21
6 23
6 25
6 33
6 34
6 36
6 44
6 47
6 49
6 57
6 58
6 60
6 68
6 70
6 72
6 80
6 81
6 83
6 91
7 10
7 12
7 15
7 21
7 24
7 27
7 33
7 35
7 38
7 44
7 48
7 51
7 57
7 59
7 62
7 68
7 71
7 74
7 80
7 82
7 85
7 91
8 10
8 11
8 15
8 21
8 23
8 27
8 33
8 34
8 38
8 44
8 47
8 51
8 57
8 58
8 62
8 68
8 70
8 74
8 80
8 81
8 85
8 91
9 10
9 13
9 14
9 21
9 25
9 26
9 33
9 36
9 37
9 44
9 49
9 50
9 57
9 60
9 61
9 68
9 72
9 73
9 80
9 83
9 84
9 91
10 16
10 17
10 18
10 19
10 20
10 28
10 29
10 30
10 31
10 32
10 39
10 40
10 41
10 42
10 43
10 52
10 53
10 54
10 55
10 56
10 63
10 64
10 65
10 66
10 67
10 75
10 76
10 77
10 78
10 79
10 86
10 87
10 88
10 89
10 90
11 22
11 24
11 26
11 29
11 31
11 45
11 48
11 50
11 53
11 55
11 69
11 71
11 73
11 76
11 78
11 92
12 22
12 23
12 25
12 28
12 30
12 45
12 47
12 49
12 52
12 54
12 69
12 70
12 72
12 75
12 77
12 92
13 22
13 24
13 27
13 29
13 32
13 45
13 48
13 51
13 53
13 56
13 69
13 71
13 74
13 76
13 79
13 92
14 22
14 23
14 27
14 28
14 32
14 45
14 47
14 51
14 52
14 56
14 69
14 70
14 74
14 75
14 79
14 92
15 22
15 25
15 26
15 30
15 31
15 45
15 49
15 50
15 54
15 55
15 69
15 72
15 73
15 77
15 78
15 92
16 22
16 24
16 26
16 33
16 45
16 48
16 50
16 57
16 69
16 71
16 73
16 80
16 92
17 22
17 23
17 25
17 33
17 45
17 47
17 49
17 57
17 69
17 70
17 72
17 80
17 92
18 22
18 24
18 27
18 33
18 45
18 48
18 51
18 57
18 69
18 71
18 74
18 80
18 92
19 22
19 23
19 27
19 33
19 45
19 47
19 51
19 57
19 69
19 70
19 74
19 80
19 92
20 22
20 25
20 26
20 33
20 45
20 49
20 50
20 57
20 69
20 72
20 73
20 80
20 92
21 22
21 28
21 29
21 30
21 31
21 32
21 45
21 52
21 53
21 54
21 55
21 56
21 69
21 75
21 76
21 77
21 78
21 79
21 92
22 34
22 35
22 36
22 37
22 38
22 39
22 40
22 41
22 42
22 43
22 44
22 58
22 59
22 60
22 61
22 62
22 63
22 64
22 65
22 66
22 67
22 68
22 81
22 82
22 83
22 84
22 85
22 86
22 87
22 88
22 89
22 90
22 91
23 46
23 48
23 50
23 53
23 55
23 59
23 61
23 64
23 66
23 93
24 46
24 47
24 49
24 52
24 54
24 58
24 60
24 63
24 65
24 93
25 46
25 48
25 51
25 53
25 56
25 59
25 62
25 64
25 67
25 93
26 46
26 47
26 51
26 52
26 56
26 58
26 62
26 63
26 67
26 93
27 46
27 49
27 50
27 54
27 55
27 60
27 61
27 65
27 66
27 93
28 46
28 48
28 50
28 57
28 59
28 61
28 68
28 93
29 46
29 47
29 49
29 57
29 58
29 60
29 68
29 93
30 46
30 48
30 51
30 57
30 59
30 62
30 68
30 93
31 46
31 47
31 51
31 57
31 58
31 62
31 68
31 93
32 46
32 49
32 50
32 57
32 60
32 61
32 68
32 93
33 46
33 52
33 53
33 54
33 55
33 56
33 63
33 64
33 65
33 66
33 67
33 93
34 46
34 48
34 50
34 53
34 55
34 69
34 93
35 46
35 47
35 49
35 52
35 54
35 69
35 93
36 46
36 48
36 51
36 53
36 56
36 69
36 93
37 46
37 47
37 51
37 52
37 56
37 69
37 93
38 46
38 49
38 50
38 54
38 55
38 69
38 93
39 46
39 48
39 50
39 57
39 69
39 93
40 46
40 47
40 49
40 57
40 69
40 93
41 46
41 48
41 51
41 57
41 69
41 93
42 46
42 47
42 51
42 57
42 69
42 93
43 46
43 49
43 50
43 57
43 69
43 93
44 46
44 52
44 53
44 54
44 55
44 56
44 69
44 93
45 46
45 58
45 59
45 60
45 61
45 62
45 63
45 64
45 65
45 66
45 67
45 68
45 93
46 70
46 71
46 72
46 73
46 74
46 75
46 76
46 77
46 78
46 79
46 80
46 81
46 82
46 83
46 84
46 85
46 86
46 87
46 88
46 89
46 90
46 91
46 92
47 94
48 94
49 94
50 94
51 94
52 94
53 94
54 94
55 94
56 94
57 94
58 94
59 94
60 94
61 94
62 94
63 94
64 94
65 94
66 94
67 94
68 94
69 94
70 94
71 94
72 94
73 94
74 94
75 94
76 94
77 94
78 94
79 94
80 94
81 94
82 94
83 94
84 94
85 94
86 94
87 94
88 94
89 94
90 94
91 94
92 94
93 94
